p cnf 287 214
c p distribution  0.875 0.125
c p distribution  0.875 0.125
c p distribution  0.875 0.125
c p distribution  0.875 0.125
c p distribution  0.875 0.125
c p distribution  0.875 0.125
c p distribution  0.875 0.125
c p distribution  0.875 0.125
c p distribution  0.875 0.125
c p distribution  0.875 0.125
c p distribution  0.875 0.125
c p distribution  0.875 0.125
c p distribution  0.875 0.125
c p distribution  0.875 0.125
c p distribution  0.875 0.125
c p distribution  0.875 0.125
c p distribution  0.875 0.125
c p distribution  0.875 0.125
c p distribution  0.875 0.125
c p distribution  0.875 0.125
c p distribution  0.875 0.125
c p distribution  0.875 0.125
c p distribution  0.875 0.125
c p distribution  0.875 0.125
c p distribution  0.875 0.125
c p distribution  0.875 0.125
c p distribution  0.875 0.125
c p distribution  0.875 0.125
c p distribution  0.875 0.125
c p distribution  0.875 0.125
c p distribution  0.875 0.125
c p distribution  0.875 0.125
c p distribution  0.875 0.125
c p distribution  0.875 0.125
c p distribution  0.875 0.125
c p distribution  0.875 0.125
c p distribution  0.875 0.125
c p distribution  0.875 0.125
c p distribution  0.875 0.125
c p distribution  0.875 0.125
c p distribution  0.875 0.125
c p distribution  0.875 0.125
c p distribution  0.875 0.125
c p distribution  0.875 0.125
c p distribution  0.875 0.125
c p distribution  0.875 0.125
c p distribution  0.875 0.125
c p distribution  0.875 0.125
c p distribution  0.875 0.125
c p distribution  0.875 0.125
c p distribution  0.875 0.125
c p distribution  0.875 0.125
c p distribution  0.875 0.125
c p distribution  0.875 0.125
c p distribution  0.875 0.125
c p distribution  0.875 0.125
c p distribution  0.875 0.125
c p distribution  0.875 0.125
c p distribution  0.875 0.125
c p distribution  0.875 0.125
c p distribution  0.875 0.125
c p distribution  0.875 0.125
c p distribution  0.875 0.125
c p distribution  0.875 0.125
c p distribution  0.875 0.125
c p distribution  0.875 0.125
c p distribution  0.875 0.125
c p distribution  0.875 0.125
c p distribution  0.875 0.125
c p distribution  0.875 0.125
c p distribution  0.875 0.125
c p distribution  0.875 0.125
c p distribution  0.875 0.125
c p distribution  0.875 0.125
c p distribution  0.875 0.125
c p distribution  0.875 0.125
c p distribution  0.875 0.125
c p distribution  0.875 0.125
c p distribution  0.875 0.125
c p distribution  0.875 0.125
c p distribution  0.875 0.125
c p distribution  0.875 0.125
c p distribution  0.875 0.125
c p distribution  0.875 0.125
c p distribution  0.875 0.125
c p distribution  0.875 0.125
c p distribution  0.875 0.125
c p distribution  0.875 0.125
c p distribution  0.875 0.125
c p distribution  0.875 0.125
c p distribution  0.875 0.125
c p distribution  0.875 0.125
c p distribution  0.875 0.125
c p distribution  0.875 0.125
c p distribution  0.875 0.125
c p distribution  0.875 0.125
c p distribution  0.875 0.125
c p distribution  0.875 0.125
c p distribution  0.875 0.125
c p distribution  0.875 0.125
c p distribution  0.875 0.125
c p distribution  0.875 0.125
c p distribution  0.875 0.125
c p distribution  0.875 0.125
c p distribution  0.875 0.125
c p distribution  0.875 0.125
278 0
-231 0
223 -272 -1 0
272 -223 -1 0
259 -271 -3 0
271 -259 -3 0
287 -282 -5 0
282 -287 -5 0
266 -213 -7 0
213 -266 -7 0
246 -245 -9 0
245 -246 -9 0
230 -239 -11 0
239 -230 -11 0
243 -258 -13 0
258 -243 -13 0
216 -239 -15 0
239 -216 -15 0
278 -265 -17 0
265 -278 -17 0
281 -284 -19 0
284 -281 -19 0
240 -282 -21 0
282 -240 -21 0
221 -251 -23 0
251 -221 -23 0
261 -220 -25 0
220 -261 -25 0
257 -278 -27 0
278 -257 -27 0
234 -253 -29 0
253 -234 -29 0
281 -213 -31 0
213 -281 -31 0
244 -237 -33 0
237 -244 -33 0
260 -225 -35 0
225 -260 -35 0
274 -276 -37 0
276 -274 -37 0
227 -239 -39 0
239 -227 -39 0
287 -243 -41 0
243 -287 -41 0
221 -224 -43 0
224 -221 -43 0
284 -283 -45 0
283 -284 -45 0
244 -280 -47 0
280 -244 -47 0
267 -286 -49 0
286 -267 -49 0
234 -269 -51 0
269 -234 -51 0
226 -219 -53 0
219 -226 -53 0
274 -276 -55 0
276 -274 -55 0
287 -246 -57 0
246 -287 -57 0
220 -215 -59 0
215 -220 -59 0
239 -279 -61 0
279 -239 -61 0
270 -266 -63 0
266 -270 -63 0
287 -235 -65 0
235 -287 -65 0
273 -231 -67 0
231 -273 -67 0
264 -243 -69 0
243 -264 -69 0
254 -229 -71 0
229 -254 -71 0
287 -218 -73 0
218 -287 -73 0
275 -236 -75 0
236 -275 -75 0
243 -247 -77 0
247 -243 -77 0
221 -233 -79 0
233 -221 -79 0
217 -277 -81 0
277 -217 -81 0
227 -256 -83 0
256 -227 -83 0
230 -285 -85 0
285 -230 -85 0
247 -250 -87 0
250 -247 -87 0
251 -225 -89 0
225 -251 -89 0
247 -250 -91 0
250 -247 -91 0
281 -284 -93 0
284 -281 -93 0
219 -272 -95 0
272 -219 -95 0
274 -257 -97 0
257 -274 -97 0
257 -223 -99 0
223 -257 -99 0
274 -222 -101 0
222 -274 -101 0
245 -277 -103 0
277 -245 -103 0
286 -248 -105 0
248 -286 -105 0
238 -285 -107 0
285 -238 -107 0
227 -219 -109 0
219 -227 -109 0
240 -218 -111 0
218 -240 -111 0
243 -268 -113 0
268 -243 -113 0
265 -263 -115 0
263 -265 -115 0
249 -215 -117 0
215 -249 -117 0
248 -226 -119 0
226 -248 -119 0
243 -244 -121 0
244 -243 -121 0
251 -272 -123 0
272 -251 -123 0
255 -279 -125 0
279 -255 -125 0
243 -244 -127 0
244 -243 -127 0
287 -218 -129 0
218 -287 -129 0
252 -266 -131 0
266 -252 -131 0
286 -248 -133 0
248 -286 -133 0
287 -282 -135 0
282 -287 -135 0
227 -252 -137 0
252 -227 -137 0
241 -270 -139 0
270 -241 -139 0
217 -254 -141 0
254 -217 -141 0
234 -247 -143 0
247 -234 -143 0
234 -269 -145 0
269 -234 -145 0
277 -269 -147 0
269 -277 -147 0
287 -245 -149 0
245 -287 -149 0
242 -254 -151 0
254 -242 -151 0
262 -268 -153 0
268 -262 -153 0
238 -234 -155 0
234 -238 -155 0
287 -270 -157 0
270 -287 -157 0
259 -239 -159 0
239 -259 -159 0
265 -263 -161 0
263 -265 -161 0
216 -273 -163 0
273 -216 -163 0
246 -217 -165 0
217 -246 -165 0
233 -222 -167 0
222 -233 -167 0
250 -252 -169 0
252 -250 -169 0
243 -266 -171 0
266 -243 -171 0
258 -264 -173 0
264 -258 -173 0
230 -285 -175 0
285 -230 -175 0
249 -220 -177 0
220 -249 -177 0
281 -226 -179 0
226 -281 -179 0
274 -276 -181 0
276 -274 -181 0
227 -251 -183 0
251 -227 -183 0
243 -214 -185 0
214 -243 -185 0
287 -240 -187 0
240 -287 -187 0
273 -233 -189 0
233 -273 -189 0
274 -276 -191 0
276 -274 -191 0
266 -284 -193 0
284 -266 -193 0
238 -253 -195 0
253 -238 -195 0
232 -231 -197 0
231 -232 -197 0
243 -236 -199 0
236 -243 -199 0
243 -214 -201 0
214 -243 -201 0
216 -231 -203 0
231 -216 -203 0
215 -268 -205 0
268 -215 -205 0
228 -214 -207 0
214 -228 -207 0
243 -264 -209 0
264 -243 -209 0
260 -257 -211 0
257 -260 -211 0

